13
7 9 1 11 2 7 0 4 8 7 -1 2 5 7 5 3 6 2 6 7 3 6 2 0 5 3 7 11 0 1 3 1 3 0 5 4 1 8 10 2 10 3 4 9 6 6 4 1 9 10 5 9 4 1 0 6 2 2 4 0 1 6 3 5 6 4 9 8 6 -1 8 2 5 0 7 0 7 2 1 5 8 3 0 4 0 10 10 11 2 2 3 9 8 4 11 5 3 1 8 11 
